s = array1d(1..225, [0, 0, 0, 0, 1, 3, 11, 9, 0, 12, 0, 2, 0, 0, 0, 0, 10, 6, 0, 0, 0, 0, 14, 0, 0, 8, 0, 2, 7, 3, 7, 0, 10, 0, 0, 0, 0, 0, 1, 14, 11, 0, 6, 9, 0, 13, 12, 0, 0, 0, 1, 0, 0, 0, 8, 0, 0, 0, 4, 10, 0, 0, 0, 1, 0, 13, 9, 2, 0, 0, 0, 0, 8, 0, 7, 0, 11, 0, 0, 10, 0, 0, 0, 0, 0, 13, 6, 4, 0, 14, 6, 9, 7, 0, 0, 0, 0, 0, 0, 0, 0, 4, 14, 10, 0, 0, 0, 0, 7, 6, 8, 0, 0, 2, 3, 0, 9, 5, 0, 0, 3, 4, 2, 0, 0, 0, 13, 0, 0, 9, 0, 0, 0, 14, 0, 9, 0, 1, 11, 0, 0, 8, 5, 0, 0, 0, 12, 0, 0, 6, 0, 0, 0, 8, 13, 10, 3, 4, 14, 0, 0, 5, 0, 0, 0, 0, 0, 0, 0, 0, 6, 5, 12, 8, 4, 7, 0, 0, 0, 1, 0, 3, 0, 13, 11, 12, 0, 0, 0, 10, 9, 0, 0, 0, 0, 0, 1, 5, 6, 0, 0, 0, 7, 0, 0, 4, 0, 10, 3, 0, 8, 0, 9, 0, 14, 0, 0, 0, 10, 0, 3, 0, 0, 0, 4]);
n = 15;
